NAME          DCAP_2_3_3_200_SS194
ROWS
 N  OBJ
 L  CON1
 L  CON2
 L  CON3
 L  CON4
 L  CON5
 L  CON6
 L  CON7
 L  CON8
 L  CON9
 L  CON10
 L  CON11
 L  CON12
 E  CON13
 E  CON14
 E  CON15
 E  CON16
 E  CON17
 E  CON18
 E  CON19
 E  CON20
 E  CON21
COLUMNS
    x[1,1]    OBJ       6.180167      CON1      1.000000    
    x[1,1]    CON7      -1.000000     CON8      -1.000000   
    x[1,1]    CON9      -1.000000   
    x[1,2]    OBJ       6.563535      CON2      1.000000    
    x[1,2]    CON8      -1.000000     CON9      -1.000000   
    x[1,3]    OBJ       7.443064      CON3      1.000000    
    x[1,3]    CON9      -1.000000   
    x[2,1]    OBJ       6.732585      CON4      1.000000    
    x[2,1]    CON10     -1.000000     CON11     -1.000000   
    x[2,1]    CON12     -1.000000   
    x[2,2]    OBJ       5.039546      CON5      1.000000    
    x[2,2]    CON11     -1.000000     CON12     -1.000000   
    x[2,3]    OBJ       6.054841      CON6      1.000000    
    x[2,3]    CON12     -1.000000   
    MARKER    'MARKER'                'INTORG'
    u[1,1]    OBJ       48.076654     CON1      -1.000000   
    u[1,2]    OBJ       20.066487     CON2      -1.000000   
    u[1,3]    OBJ       32.230043     CON3      -1.000000   
    u[2,1]    OBJ       49.996186     CON4      -1.000000   
    u[2,2]    OBJ       49.466655     CON5      -1.000000   
    u[2,3]    OBJ       27.484319     CON6      -1.000000   
    y[1,1,1]  OBJ       6.872989      CON7      0.686537    
    y[1,1,1]  CON13     1.000000    
    y[1,1,2]  OBJ       6.513841      CON8      0.607935    
    y[1,1,2]  CON14     1.000000    
    y[1,1,3]  OBJ       8.063726      CON9      1.061020    
    y[1,1,3]  CON15     1.000000    
    y[1,2,1]  OBJ       9.867746      CON7      0.583653    
    y[1,2,1]  CON16     1.000000    
    y[1,2,2]  OBJ       8.529772      CON8      0.682151    
    y[1,2,2]  CON17     1.000000    
    y[1,2,3]  OBJ       5.783210      CON9      1.149134    
    y[1,2,3]  CON18     1.000000    
    y[1,3,1]  OBJ       5.005424      CON7      1.250296    
    y[1,3,1]  CON19     1.000000    
    y[1,3,2]  OBJ       8.549199      CON8      1.216068    
    y[1,3,2]  CON20     1.000000    
    y[1,3,3]  OBJ       8.707898      CON9      1.487800    
    y[1,3,3]  CON21     1.000000    
    y[2,1,1]  OBJ       5.081170      CON10     0.686537    
    y[2,1,1]  CON13     1.000000    
    y[2,1,2]  OBJ       7.396419      CON11     0.607935    
    y[2,1,2]  CON14     1.000000    
    y[2,1,3]  OBJ       5.004269      CON12     1.061020    
    y[2,1,3]  CON15     1.000000    
    y[2,2,1]  OBJ       9.489294      CON10     0.583653    
    y[2,2,1]  CON16     1.000000    
    y[2,2,2]  OBJ       9.273531      CON11     0.682151    
    y[2,2,2]  CON17     1.000000    
    y[2,2,3]  OBJ       7.599572      CON12     1.149134    
    y[2,2,3]  CON18     1.000000    
    y[2,3,1]  OBJ       9.257354      CON10     1.250296    
    y[2,3,1]  CON19     1.000000    
    y[2,3,2]  OBJ       6.363703      CON11     1.216068    
    y[2,3,2]  CON20     1.000000    
    y[2,3,3]  OBJ       6.932081      CON12     1.487800    
    y[2,3,3]  CON21     1.000000    
    z[1,1]    OBJ       843.266041    CON13     1.000000    
    z[1,2]    OBJ       626.821398    CON14     1.000000    
    z[1,3]    OBJ       576.528565    CON15     1.000000    
    z[2,1]    OBJ       789.311559    CON16     1.000000    
    z[2,2]    OBJ       609.559235    CON17     1.000000    
    z[2,3]    OBJ       935.480702    CON18     1.000000    
    z[3,1]    OBJ       733.795847    CON19     1.000000    
    z[3,2]    OBJ       639.355652    CON20     1.000000    
    z[3,3]    OBJ       663.384967    CON21     1.000000    
    MARKER    'MARKER'                 'INTEND'
RHS
    RHS       CON1      -0.000000     CON2      -0.000000   
    RHS       CON3      -0.000000     CON4      -0.000000   
    RHS       CON5      -0.000000     CON6      -0.000000   
    RHS       CON7      -0.000000     CON8      -0.000000   
    RHS       CON9      -0.000000     CON10     -0.000000   
    RHS       CON11     -0.000000     CON12     -0.000000   
    RHS       CON13     1.000000      CON14     1.000000    
    RHS       CON15     1.000000      CON16     1.000000    
    RHS       CON17     1.000000      CON18     1.000000    
    RHS       CON19     1.000000      CON20     1.000000    
    RHS       CON21     1.000000    
BOUNDS
 BV BOUND     u[1,1]  
 BV BOUND     u[1,2]  
 BV BOUND     u[1,3]  
 BV BOUND     u[2,1]  
 BV BOUND     u[2,2]  
 BV BOUND     u[2,3]  
 BV BOUND     y[1,1,1]
 BV BOUND     y[1,1,2]
 BV BOUND     y[1,1,3]
 BV BOUND     y[1,2,1]
 BV BOUND     y[1,2,2]
 BV BOUND     y[1,2,3]
 BV BOUND     y[1,3,1]
 BV BOUND     y[1,3,2]
 BV BOUND     y[1,3,3]
 BV BOUND     y[2,1,1]
 BV BOUND     y[2,1,2]
 BV BOUND     y[2,1,3]
 BV BOUND     y[2,2,1]
 BV BOUND     y[2,2,2]
 BV BOUND     y[2,2,3]
 BV BOUND     y[2,3,1]
 BV BOUND     y[2,3,2]
 BV BOUND     y[2,3,3]
 BV BOUND     z[1,1]  
 BV BOUND     z[1,2]  
 BV BOUND     z[1,3]  
 BV BOUND     z[2,1]  
 BV BOUND     z[2,2]  
 BV BOUND     z[2,3]  
 BV BOUND     z[3,1]  
 BV BOUND     z[3,2]  
 BV BOUND     z[3,3]  
ENDATA
